32      4       
18      15      16      18      
0       0       0       0       0       16      2       4       6       7       8       13      14      15      24      25      26      27      28      29      30      31      
4       1       3       0       0       1       3       
5       0       1       7       0       3       5       11      16      
5       2       5       0       0       4       11      16      18      23      
10      0       0       4       5       2       9       18      
1       1       0       0       2       3       17      21      22      
7       0       0       1       1       2       12      20      
1       0       6       2       0       2       16      17      
4       15      0       0       9       1       10      
9       1       1       0       0       1       17      
1       0       0       6       7       1       19      
5       11      0       0       8       1       16      
6       13      0       0       8       1       18      
5       0       8       0       4       1       16      
10      1       0       1       0       1       16      
3       9       0       1       0       1       32      
1       7       0       0       1       1       32      
6       0       1       0       4       1       32      
9       2       0       6       0       1       32      
6       1       5       0       0       1       32      
4       2       6       0       0       1       32      
1       0       1       8       0       1       32      
10      0       5       0       6       1       32      
7       0       1       1       0       1       32      
1       0       2       0       1       1       32      
6       0       0       16      3       1       32      
7       1       0       1       0       1       32      
8       0       0       1       8       1       32      
1       1       10      0       0       1       32      
3       0       0       4       1       1       32      
8       0       1       1       0       1       32      
0       0       0       0       0       0       
